500
1000
378
378
377
377
377
374
374
373
372
372
371
371
370
369
368
366
366
365
364
364
363
363
362
361
358
357
357
357
356
356
355
355
351
351
349
348
345
345
344
344
340
339
338
338
337
336
335
335
334
332
332
331
330
329
329
329
327
327
326
325
324
323
323
321
321
321
320
318
318
318
317
316
315
315
315
314
314
313
312
312
311
311
310
308
306
306
305
304
304
303
303
301
301
299
298
298
296
295
295
294
292
291
289
288
287
286
286
285
285
284
284
283
282
282
282
282
282
282
280
279
279
279
278
278
278
277
277
276
276
274
274
273
272
272
271
271
271
271
269
267
267
265
264
264
264
263
263
263
262
262
261
261
259
258
257
255
255
254
252
251
251
250
250
250
249
248
247
247
246
245
245
243
243
242
241
240
240
240
238
237
236
236
235
235
234
233
231
231
230
230
229
228
227
227
227
226
225
225
224
223
223
222
222
222
222
221
220
219
219
218
218
217
216
215
215
215
214
212
212
211
211
210
209
209
209
208
206
206
206
204
203
202
202
202
201
200
200
200
200
200
198
198
198
197
196
195
194
194
192
191
190
189
189
188
188
188
187
186
186
186
185
185
185
185
184
183
182
182
182
181
181
180
179
179
179
177
177
177
177
176
174
174
174
174
173
173
173
172
172
170
168
168
167
165
165
164
164
163
163
163
162
160
160
159
159
158
157
156
156
156
155
155
155
155
154
154
153
153
152
152
151
150
149
149
148
148
147
147
147
147
146
146
144
144
143
143
143
141
140
139
139
139
138
138
138
136
136
135
135
135
133
133
132
132
132
131
130
130
129
128
126
126
124
124
124
123
123
120
120
119
119
118
118
118
117
116
115
115
113
112
111
111
111
110
110
110
110
109
108
108
108
108
107
107
105
105
105
104
103
103
103
102
101
101
100
100
97
97
96
96
95
95
95
95
95
94
90
88
88
87
86
86
86
85
85
85
84
83
81
81
81
79
79
76
76
76
74
74
73
72
72
72
72
71
70
68
67
66
65
65
63
61
59
58
58
58
57
56
55
55
55
54
54
52
51
50
50
49
47
47
46
46
43
42
42
42
41
41
41
41
39
39
39
36
33
33
31
31
29
29
28
27
27
27
26
25
25
23
23
22
